c Result of efficient AIG-to-CNF conversion using package CNF
p cnf 176 552
2 3 -103 0
2 -3 103 0
-2 -3 -103 0
-2 3 103 0
-3 4 101 0
-3 -4 -101 0
3 -4 101 0
3 4 -101 0
4 -146 -35 0
4 -146 5 0
4 5 -35 0
-4 -5 35 0
-4 146 35 0
-4 146 -5 0
5 -6 34 0
5 6 -34 0
-5 6 34 0
-5 -6 -34 0
-6 115 -147 0
-6 -147 7 0
-6 115 7 0
6 147 -7 0
6 -115 147 0
6 -115 -7 0
-7 116 -148 0
-7 -148 8 0
-7 116 8 0
7 148 -8 0
7 -116 148 0
7 -116 -8 0
-8 117 -149 0
-8 -149 9 0
-8 117 9 0
8 149 -9 0
8 -117 149 0
8 -117 -9 0
-9 118 -150 0
-9 -150 10 0
-9 118 10 0
9 150 -10 0
9 -118 150 0
9 -118 -10 0
-10 119 -151 0
-10 -151 11 0
-10 119 11 0
10 151 -11 0
10 -119 151 0
10 -119 -11 0
-11 120 -152 0
-11 -152 12 0
-11 120 12 0
11 152 -12 0
11 -120 152 0
11 -120 -12 0
-12 121 -153 0
-12 -153 13 0
-12 121 13 0
12 153 -13 0
12 -121 153 0
12 -121 -13 0
-13 122 -154 0
-13 -154 14 0
-13 122 14 0
13 154 -14 0
13 -122 154 0
13 -122 -14 0
-14 123 -155 0
-14 -155 15 0
-14 123 15 0
14 155 -15 0
14 -123 155 0
14 -123 -15 0
-15 124 -156 0
-15 -156 16 0
-15 124 16 0
15 156 -16 0
15 -124 156 0
15 -124 -16 0
-16 125 -157 0
-16 -157 17 0
-16 125 17 0
16 157 -17 0
16 -125 157 0
16 -125 -17 0
-17 126 -158 0
-17 -158 18 0
-17 126 18 0
17 158 -18 0
17 -126 158 0
17 -126 -18 0
-18 127 -159 0
-18 -159 19 0
-18 127 19 0
18 159 -19 0
18 -127 159 0
18 -127 -19 0
-19 128 -160 0
-19 -160 20 0
-19 128 20 0
19 160 -20 0
19 -128 160 0
19 -128 -20 0
-20 129 -161 0
-20 -161 21 0
-20 129 21 0
20 161 -21 0
20 -129 161 0
20 -129 -21 0
-21 130 -162 0
-21 -162 22 0
-21 130 22 0
21 162 -22 0
21 -130 162 0
21 -130 -22 0
-22 131 -163 0
-22 -163 23 0
-22 131 23 0
22 163 -23 0
22 -131 163 0
22 -131 -23 0
-23 132 -164 0
-23 -164 24 0
-23 132 24 0
23 164 -24 0
23 -132 164 0
23 -132 -24 0
-24 133 -165 0
-24 -165 25 0
-24 133 25 0
24 165 -25 0
24 -133 165 0
24 -133 -25 0
-25 134 -166 0
-25 -166 26 0
-25 134 26 0
25 166 -26 0
25 -134 166 0
25 -134 -26 0
-26 -167 27 0
-26 135 27 0
-26 135 -167 0
26 -135 -27 0
26 -135 167 0
26 167 -27 0
27 -136 -28 0
27 -136 168 0
27 168 -28 0
-27 -168 28 0
-27 136 28 0
-27 136 -168 0
28 -137 -29 0
28 -137 169 0
28 169 -29 0
-28 -169 29 0
-28 137 29 0
-28 137 -169 0
29 170 -30 0
29 -138 170 0
29 -138 -30 0
-29 138 -170 0
-29 -170 30 0
-29 138 30 0
-30 139 -171 0
-30 -171 31 0
-30 139 31 0
30 171 -31 0
30 -139 171 0
30 -139 -31 0
-31 140 -172 0
-31 -172 32 0
-31 140 32 0
31 172 -32 0
31 -140 172 0
31 -140 -32 0
-32 -173 33 0
-32 141 33 0
-32 141 -173 0
32 -141 -33 0
32 -141 173 0
32 173 -33 0
33 -142 174 0
33 -142 -143 175 0
33 -143 174 175 0
-33 142 -175 0
-33 -174 -175 0
-33 142 -174 0
-33 143 -174 0
-33 142 143 0
-34 -114 -146 0
-34 114 146 0
34 114 -146 0
34 -114 146 0
35 -147 -38 0
35 -147 36 0
35 36 -38 0
-35 -36 38 0
-35 147 38 0
-35 147 -36 0
36 -7 37 0
36 7 -37 0
-36 7 37 0
-36 -7 -37 0
-37 -115 -147 0
-37 115 147 0
37 115 -147 0
37 -115 147 0
38 -148 -41 0
38 -148 39 0
38 39 -41 0
-38 -39 41 0
-38 148 41 0
-38 148 -39 0
39 -8 40 0
39 8 -40 0
-39 8 40 0
-39 -8 -40 0
-40 -116 -148 0
-40 116 148 0
40 116 -148 0
40 -116 148 0
41 -149 -44 0
41 -149 42 0
41 42 -44 0
-41 -42 44 0
-41 149 44 0
-41 149 -42 0
42 -9 43 0
42 9 -43 0
-42 9 43 0
-42 -9 -43 0
-43 -117 -149 0
-43 117 149 0
43 117 -149 0
43 -117 149 0
44 -150 -47 0
44 -150 45 0
44 45 -47 0
-44 -45 47 0
-44 150 47 0
-44 150 -45 0
45 -10 46 0
45 10 -46 0
-45 10 46 0
-45 -10 -46 0
-46 -118 -150 0
-46 118 150 0
46 118 -150 0
46 -118 150 0
47 -151 -50 0
47 -151 48 0
47 48 -50 0
-47 -48 50 0
-47 151 50 0
-47 151 -48 0
48 -11 49 0
48 11 -49 0
-48 11 49 0
-48 -11 -49 0
-49 -119 -151 0
-49 119 151 0
49 119 -151 0
49 -119 151 0
50 -152 -53 0
50 -152 51 0
50 51 -53 0
-50 -51 53 0
-50 152 53 0
-50 152 -51 0
51 -12 52 0
51 12 -52 0
-51 12 52 0
-51 -12 -52 0
-52 -120 -152 0
-52 120 152 0
52 120 -152 0
52 -120 152 0
53 -153 -56 0
53 -153 54 0
53 54 -56 0
-53 -54 56 0
-53 153 56 0
-53 153 -54 0
54 -13 55 0
54 13 -55 0
-54 13 55 0
-54 -13 -55 0
-55 -121 -153 0
-55 121 153 0
55 121 -153 0
55 -121 153 0
56 -154 -59 0
56 -154 57 0
56 57 -59 0
-56 -57 59 0
-56 154 59 0
-56 154 -57 0
57 -14 58 0
57 14 -58 0
-57 14 58 0
-57 -14 -58 0
-58 -122 -154 0
-58 122 154 0
58 122 -154 0
58 -122 154 0
59 -155 -62 0
59 -155 60 0
59 60 -62 0
-59 -60 62 0
-59 155 62 0
-59 155 -60 0
60 -15 61 0
60 15 -61 0
-60 15 61 0
-60 -15 -61 0
-61 -123 -155 0
-61 123 155 0
61 123 -155 0
61 -123 155 0
62 -156 -65 0
62 -156 63 0
62 63 -65 0
-62 -63 65 0
-62 156 65 0
-62 156 -63 0
63 -16 64 0
63 16 -64 0
-63 16 64 0
-63 -16 -64 0
-64 -124 -156 0
-64 124 156 0
64 124 -156 0
64 -124 156 0
65 -157 -68 0
65 -157 66 0
65 66 -68 0
-65 -66 68 0
-65 157 68 0
-65 157 -66 0
66 -17 67 0
66 17 -67 0
-66 17 67 0
-66 -17 -67 0
-67 -125 -157 0
-67 125 157 0
67 125 -157 0
67 -125 157 0
68 -158 -71 0
68 -158 69 0
68 69 -71 0
-68 -69 71 0
-68 158 71 0
-68 158 -69 0
69 -18 70 0
69 18 -70 0
-69 18 70 0
-69 -18 -70 0
-70 -126 -158 0
-70 126 158 0
70 126 -158 0
70 -126 158 0
71 -159 -74 0
71 -159 72 0
71 72 -74 0
-71 -72 74 0
-71 159 74 0
-71 159 -72 0
72 -19 73 0
72 19 -73 0
-72 19 73 0
-72 -19 -73 0
-73 -127 -159 0
-73 127 159 0
73 127 -159 0
73 -127 159 0
74 -160 -77 0
74 -160 75 0
74 75 -77 0
-74 -75 77 0
-74 160 77 0
-74 160 -75 0
75 -20 76 0
75 20 -76 0
-75 20 76 0
-75 -20 -76 0
-76 -128 -160 0
-76 128 160 0
76 128 -160 0
76 -128 160 0
77 -161 -80 0
77 -161 78 0
77 78 -80 0
-77 -78 80 0
-77 161 80 0
-77 161 -78 0
78 -21 79 0
78 21 -79 0
-78 21 79 0
-78 -21 -79 0
-79 -129 -161 0
-79 129 161 0
79 129 -161 0
79 -129 161 0
80 -162 -83 0
80 -162 81 0
80 81 -83 0
-80 -81 83 0
-80 162 83 0
-80 162 -81 0
81 -22 82 0
81 22 -82 0
-81 22 82 0
-81 -22 -82 0
-82 -130 -162 0
-82 130 162 0
82 130 -162 0
82 -130 162 0
83 -163 -86 0
83 -163 84 0
83 84 -86 0
-83 -84 86 0
-83 163 86 0
-83 163 -84 0
84 -23 85 0
84 23 -85 0
-84 23 85 0
-84 -23 -85 0
-85 -131 -163 0
-85 131 163 0
85 131 -163 0
85 -131 163 0
86 -164 -89 0
86 -164 87 0
86 87 -89 0
-86 -87 89 0
-86 164 89 0
-86 164 -87 0
87 -24 88 0
87 24 -88 0
-87 24 88 0
-87 -24 -88 0
-88 -132 -164 0
-88 132 164 0
88 132 -164 0
88 -132 164 0
89 -165 -92 0
89 -165 90 0
89 90 -92 0
-89 -90 92 0
-89 165 92 0
-89 165 -90 0
90 -25 91 0
90 25 -91 0
-90 25 91 0
-90 -25 -91 0
-91 -133 -165 0
-91 133 165 0
91 133 -165 0
91 -133 165 0
92 93 -95 0
92 -166 93 0
92 -166 -95 0
-92 166 -93 0
-92 -93 95 0
-92 166 95 0
93 -26 94 0
93 26 -94 0
-93 26 94 0
-93 -26 -94 0
-94 -134 -166 0
-94 134 166 0
94 134 -166 0
94 -134 166 0
-95 -135 167 0
-95 167 -27 0
-95 -135 -27 0
-95 135 27 96 0
95 135 -167 -27 0
95 135 27 -96 0
95 -135 -167 27 0
-96 137 97 98 99 0
96 -137 0
96 -99 0
96 -98 0
96 -97 0
-97 138 30 0
97 -138 0
97 -30 0
-98 136 28 0
98 -136 0
98 -28 0
-99 139 140 142 100 0
99 -100 0
99 -142 0
99 -139 0
99 -140 0
-100 141 143 0
100 -141 0
100 -143 0
-101 113 102 0
-101 -113 -102 0
101 -113 102 0
101 113 -102 0
-102 114 -146 0
-102 -146 6 0
-102 114 6 0
102 146 -6 0
102 -114 146 0
102 -114 -6 0
103 -113 104 0
103 113 -104 0
-103 113 104 0
-103 -113 -104 0
-104 114 115 116 105 0
104 -105 0
104 -116 0
104 -114 0
104 -115 0
-105 117 118 119 106 0
105 -106 0
105 -119 0
105 -117 0
105 -118 0
-106 120 121 122 107 0
106 -107 0
106 -122 0
106 -120 0
106 -121 0
-107 123 124 125 108 0
107 -108 0
107 -125 0
107 -123 0
107 -124 0
-108 126 127 128 109 0
108 -109 0
108 -128 0
108 -126 0
108 -127 0
-109 129 130 131 110 0
109 -110 0
109 -131 0
109 -129 0
109 -130 0
-110 132 133 134 111 0
110 -111 0
110 -134 0
110 -132 0
110 -133 0
-111 135 96 0
111 -135 0
111 -96 0
-176 0
2 0

